(set-info :smt-lib-version 2.6)
(set-logic UF)
(set-info :source |Benchmarks from the paper: "Extending Sledgehammer with SMT Solvers" by Jasmin Blanchette, Sascha Bohme, and Lawrence C. Paulson, CADE 2011.  Translated to SMT2 by Andrew Reynolds and Morgan Deters.|)
(set-info :category "industrial")
(set-info :status unknown)
(declare-sort S1 0)
(declare-sort S2 0)
(declare-sort S3 0)
(declare-sort S4 0)
(declare-sort S5 0)
(declare-sort S6 0)
(declare-sort S7 0)
(declare-sort S8 0)
(declare-sort S9 0)
(declare-sort S10 0)
(declare-sort S11 0)
(declare-sort S12 0)
(declare-sort S13 0)
(declare-sort S14 0)
(declare-sort S15 0)
(declare-sort S16 0)
(declare-sort S17 0)
(declare-sort S18 0)
(declare-sort S19 0)
(declare-sort S20 0)
(declare-sort S21 0)
(declare-sort S22 0)
(declare-sort S23 0)
(declare-sort S24 0)
(declare-sort S25 0)
(declare-sort S26 0)
(declare-sort S27 0)
(declare-sort S28 0)
(declare-sort S29 0)
(declare-sort S30 0)
(declare-sort S31 0)
(declare-sort S32 0)
(declare-sort S33 0)
(declare-sort S34 0)
(declare-sort S35 0)
(declare-sort S36 0)
(declare-sort S37 0)
(declare-sort S38 0)
(declare-sort S39 0)
(declare-sort S40 0)
(declare-sort S41 0)
(declare-sort S42 0)
(declare-sort S43 0)
(declare-sort S44 0)
(declare-sort S45 0)
(declare-sort S46 0)
(declare-sort S47 0)
(declare-sort S48 0)
(declare-sort S49 0)
(declare-sort S50 0)
(declare-sort S51 0)
(declare-sort S52 0)
(declare-sort S53 0)
(declare-sort S54 0)
(declare-sort S55 0)
(declare-sort S56 0)
(declare-sort S57 0)
(declare-sort S58 0)
(declare-sort S59 0)
(declare-sort S60 0)
(declare-sort S61 0)
(declare-sort S62 0)
(declare-sort S63 0)
(declare-sort S64 0)
(declare-fun f1 () S1)
(declare-fun f2 () S1)
(declare-fun f3 (S3 S2) S1)
(declare-fun f4 (S2) S3)
(declare-fun f5 (S2) S3)
(declare-fun f6 (S4 S3) S1)
(declare-fun f7 (S3) S4)
(declare-fun f8 (S3) S4)
(declare-fun f9 (S5 S4) S1)
(declare-fun f10 (S4) S5)
(declare-fun f11 (S4 S4) S1)
(declare-fun f12 (S7 S6) S1)
(declare-fun f13 (S6) S7)
(declare-fun f14 (S6 S6) S1)
(declare-fun f15 (S6 S8) S1)
(declare-fun f16 (S8) S6)
(declare-fun f17 (S8) S6)
(declare-fun f18 (S8 S9) S1)
(declare-fun f19 (S9) S8)
(declare-fun f20 (S9) S8)
(declare-fun f21 (S2 S10) S1)
(declare-fun f22 (S11 S2) S2)
(declare-fun f23 (S2) S11)
(declare-fun f24 (S12 S3) S3)
(declare-fun f25 (S3) S12)
(declare-fun f26 (S13 S4) S4)
(declare-fun f27 (S4) S13)
(declare-fun f28 (S14 S6) S6)
(declare-fun f29 (S6) S14)
(declare-fun f30 (S15 S8) S8)
(declare-fun f31 (S8) S15)
(declare-fun f32 (S9 S16) S1)
(declare-fun f33 (S17 S9) S9)
(declare-fun f34 (S9) S17)
(declare-fun f35 (S18 S10) S10)
(declare-fun f36 (S19 S10) S18)
(declare-fun f37 () S19)
(declare-fun f38 (S20 S2) S10)
(declare-fun f39 (S21 S10) S20)
(declare-fun f40 () S21)
(declare-fun f41 (S22 S9) S10)
(declare-fun f42 (S23 S10) S22)
(declare-fun f43 () S23)
(declare-fun f44 (S24 S16) S10)
(declare-fun f45 (S25 S10) S24)
(declare-fun f46 () S25)
(declare-fun f47 (S26 S10) S2)
(declare-fun f48 (S2) S26)
(declare-fun f49 (S27 S16) S2)
(declare-fun f50 (S2) S27)
(declare-fun f51 (S28 S10) S9)
(declare-fun f52 (S9) S28)
(declare-fun f53 (S29 S16) S9)
(declare-fun f54 (S9) S29)
(declare-fun f55 (S30 S10) S16)
(declare-fun f56 (S31 S16) S30)
(declare-fun f57 () S31)
(declare-fun f58 (S32 S2) S16)
(declare-fun f59 (S33 S16) S32)
(declare-fun f60 () S33)
(declare-fun f61 (S34 S9) S16)
(declare-fun f62 (S35 S16) S34)
(declare-fun f63 () S35)
(declare-fun f64 (S36 S16) S16)
(declare-fun f65 (S37 S16) S36)
(declare-fun f66 () S37)
(declare-fun f67 () S2)
(declare-fun f68 () S3)
(declare-fun f69 () S4)
(declare-fun f70 () S6)
(declare-fun f71 () S8)
(declare-fun f72 () S9)
(declare-fun f73 (S9) S8)
(declare-fun f74 () S9)
(declare-fun f75 (S16) S17)
(declare-fun f76 (S38 S39) S16)
(declare-fun f77 () S38)
(declare-fun f78 () S39)
(declare-fun f79 () S9)
(declare-fun f80 (S2) S1)
(declare-fun f81 () S2)
(declare-fun f82 (S40 S2) S9)
(declare-fun f83 (S30) S40)
(declare-fun f84 () S30)
(declare-fun f85 (S9) S41)
(declare-fun f86 (S39) S1)
(declare-fun f87 (S10) S3)
(declare-fun f88 (S3) S1)
(declare-fun f89 (S3) S3)
(declare-fun f90 (S9) S1)
(declare-fun f91 (S8) S1)
(declare-fun f92 (S8) S8)
(declare-fun f93 (S4) S1)
(declare-fun f94 (S5) S1)
(declare-fun f95 (S5) S5)
(declare-fun f96 (S6) S1)
(declare-fun f97 (S7) S1)
(declare-fun f98 (S7) S7)
(declare-fun f99 (S6) S6)
(declare-fun f100 (S4) S4)
(declare-fun f101 (S43 S4) S2)
(declare-fun f102 (S42) S43)
(declare-fun f103 (S45 S6) S2)
(declare-fun f104 (S44) S45)
(declare-fun f105 (S46 S8) S2)
(declare-fun f106 (S22) S46)
(declare-fun f107 (S47 S3) S2)
(declare-fun f108 (S20) S47)
(declare-fun f109 (S48 S9) S2)
(declare-fun f110 (S24) S48)
(declare-fun f111 (S50 S2) S4)
(declare-fun f112 (S49) S50)
(declare-fun f113 (S52 S2) S6)
(declare-fun f114 (S51) S52)
(declare-fun f115 (S53 S2) S8)
(declare-fun f116 (S28) S53)
(declare-fun f117 (S54 S2) S3)
(declare-fun f118 (S26) S54)
(declare-fun f119 (S36) S17)
(declare-fun f120 (S55 S3) S9)
(declare-fun f121 (S32) S55)
(declare-fun f122 (S56 S8) S9)
(declare-fun f123 (S34) S56)
(declare-fun f124 (S18) S11)
(declare-fun f125 () S3)
(declare-fun f126 () S8)
(declare-fun f127 () S2)
(declare-fun f128 (S10) S11)
(declare-fun f129 (S3) S13)
(declare-fun f130 (S8) S14)
(declare-fun f131 (S9) S15)
(declare-fun f132 (S2) S12)
(declare-fun f133 () S4)
(declare-fun f134 () S6)
(declare-fun f135 (S57 S58) S39)
(declare-fun f136 () S57)
(declare-fun f137 (S10) S58)
(declare-fun f138 (S2) S2)
(declare-fun f139 (S9) S9)
(declare-fun f140 (S59 S9) S3)
(declare-fun f141 (S27) S59)
(declare-fun f142 (S60 S9) S8)
(declare-fun f143 (S29) S60)
(declare-fun f144 (S16) S8)
(declare-fun f145 (S2) S4)
(declare-fun f146 (S9) S6)
(declare-fun f147 (S62 S4) S9)
(declare-fun f148 (S61) S62)
(declare-fun f149 (S64 S6) S9)
(declare-fun f150 (S63) S64)
(assert (not (= f1 f2)))
(assert (forall ((?v0 S2) (?v1 S2)) (= (= (f3 (f4 ?v0) ?v1) f1) (= (f3 (f5 ?v1) ?v0) f1))))
(assert (forall ((?v0 S3) (?v1 S3)) (= (= (f6 (f7 ?v0) ?v1) f1) (= (f6 (f8 ?v1) ?v0) f1))))
(assert (forall ((?v0 S4) (?v1 S4)) (= (= (f9 (f10 ?v0) ?v1) f1) (= (f11 ?v1 ?v0) f1))))
(assert (forall ((?v0 S6) (?v1 S6)) (= (= (f12 (f13 ?v0) ?v1) f1) (= (f14 ?v1 ?v0) f1))))
(assert (forall ((?v0 S8) (?v1 S8)) (= (= (f15 (f16 ?v0) ?v1) f1) (= (f15 (f17 ?v1) ?v0) f1))))
(assert (forall ((?v0 S9) (?v1 S9)) (= (= (f18 (f19 ?v0) ?v1) f1) (= (f18 (f20 ?v1) ?v0) f1))))
(assert (forall ((?v0 S2) (?v1 S2) (?v2 S10)) (= (= (f21 (f22 (f23 ?v0) ?v1) ?v2) f1) (and (= (f21 ?v0 ?v2) f1) (= (f21 ?v1 ?v2) f1)))))
(assert (forall ((?v0 S3) (?v1 S3) (?v2 S2)) (= (= (f3 (f24 (f25 ?v0) ?v1) ?v2) f1) (and (= (f3 ?v0 ?v2) f1) (= (f3 ?v1 ?v2) f1)))))
(assert (forall ((?v0 S4) (?v1 S4) (?v2 S3)) (= (= (f6 (f26 (f27 ?v0) ?v1) ?v2) f1) (and (= (f6 ?v0 ?v2) f1) (= (f6 ?v1 ?v2) f1)))))
(assert (forall ((?v0 S6) (?v1 S6) (?v2 S8)) (= (= (f15 (f28 (f29 ?v0) ?v1) ?v2) f1) (and (= (f15 ?v0 ?v2) f1) (= (f15 ?v1 ?v2) f1)))))
(assert (forall ((?v0 S8) (?v1 S8) (?v2 S9)) (= (= (f18 (f30 (f31 ?v0) ?v1) ?v2) f1) (and (= (f18 ?v0 ?v2) f1) (= (f18 ?v1 ?v2) f1)))))
(assert (forall ((?v0 S9) (?v1 S9) (?v2 S16)) (= (= (f32 (f33 (f34 ?v0) ?v1) ?v2) f1) (and (= (f32 ?v0 ?v2) f1) (= (f32 ?v1 ?v2) f1)))))
(assert (forall ((?v0 S10) (?v1 S10)) (= (f35 (f36 f37 ?v0) ?v1) ?v0)))
(assert (forall ((?v0 S10) (?v1 S2)) (= (f38 (f39 f40 ?v0) ?v1) ?v0)))
(assert (forall ((?v0 S10) (?v1 S9)) (= (f41 (f42 f43 ?v0) ?v1) ?v0)))
(assert (forall ((?v0 S10) (?v1 S16)) (= (f44 (f45 f46 ?v0) ?v1) ?v0)))
(assert (forall ((?v0 S2) (?v1 S10)) (= (f47 (f48 ?v0) ?v1) ?v0)))
(assert (forall ((?v0 S2) (?v1 S16)) (= (f49 (f50 ?v0) ?v1) ?v0)))
(assert (forall ((?v0 S9) (?v1 S10)) (= (f51 (f52 ?v0) ?v1) ?v0)))
(assert (forall ((?v0 S9) (?v1 S16)) (= (f53 (f54 ?v0) ?v1) ?v0)))
(assert (forall ((?v0 S16) (?v1 S10)) (= (f55 (f56 f57 ?v0) ?v1) ?v0)))
(assert (forall ((?v0 S16) (?v1 S2)) (= (f58 (f59 f60 ?v0) ?v1) ?v0)))
(assert (forall ((?v0 S16) (?v1 S9)) (= (f61 (f62 f63 ?v0) ?v1) ?v0)))
(assert (forall ((?v0 S16) (?v1 S16)) (= (f64 (f65 f66 ?v0) ?v1) ?v0)))
(assert (forall ((?v0 S10)) (= (= (f21 f67 ?v0) f1) false)))
(assert (forall ((?v0 S2)) (= (= (f3 f68 ?v0) f1) false)))
(assert (forall ((?v0 S3)) (= (= (f6 f69 ?v0) f1) false)))
(assert (forall ((?v0 S8)) (= (= (f15 f70 ?v0) f1) false)))
(assert (forall ((?v0 S9)) (= (= (f18 f71 ?v0) f1) false)))
(assert (forall ((?v0 S16)) (= (= (f32 f72 ?v0) f1) false)))
(assert (not (= (f18 (f73 f74) (f33 (f75 (f76 f77 f78)) f79)) f1)))
(assert (= (f80 f81) f1))
(assert (= (f18 (f20 f74) (f82 (f83 f84) f81)) f1))
(assert (= (f85 f74) (f85 (f82 (f83 f84) f81))))
(assert (= (f86 f78) f1))
(assert (forall ((?v0 S9) (?v1 S9)) (=> (= (f18 (f20 ?v0) ?v1) f1) (= (f18 (f73 ?v1) ?v0) f1))))
(assert (forall ((?v0 S39) (?v1 S9)) (=> (= (f86 ?v0) f1) (=> (forall ((?v2 S10)) (=> (= (f3 (f87 ?v2) f81) f1) (= (f18 (f73 ?v1) (f33 (f75 (f55 f84 ?v2)) f79)) f1))) (= (f18 (f73 ?v1) (f33 (f75 (f76 f77 ?v0)) f79)) f1)))))
(assert (forall ((?v0 S2)) (=> (= (f80 ?v0) f1) (= (f88 (f89 (f4 ?v0))) f1))))
(assert (forall ((?v0 S9)) (=> (= (f90 ?v0) f1) (= (f91 (f92 (f19 ?v0))) f1))))
(assert (forall ((?v0 S4)) (=> (= (f93 ?v0) f1) (= (f94 (f95 (f10 ?v0))) f1))))
(assert (forall ((?v0 S6)) (=> (= (f96 ?v0) f1) (= (f97 (f98 (f13 ?v0))) f1))))
(assert (forall ((?v0 S8)) (=> (= (f91 ?v0) f1) (= (f96 (f99 (f16 ?v0))) f1))))
(assert (forall ((?v0 S3)) (=> (= (f88 ?v0) f1) (= (f93 (f100 (f7 ?v0))) f1))))
(assert (forall ((?v0 S2) (?v1 S30)) (=> (= (f80 ?v0) f1) (= (f90 (f82 (f83 ?v1) ?v0)) f1))))
(assert (forall ((?v0 S4) (?v1 S42)) (=> (= (f93 ?v0) f1) (= (f80 (f101 (f102 ?v1) ?v0)) f1))))
(assert (forall ((?v0 S6) (?v1 S44)) (=> (= (f96 ?v0) f1) (= (f80 (f103 (f104 ?v1) ?v0)) f1))))
(assert (forall ((?v0 S8) (?v1 S22)) (=> (= (f91 ?v0) f1) (= (f80 (f105 (f106 ?v1) ?v0)) f1))))
(assert (forall ((?v0 S3) (?v1 S20)) (=> (= (f88 ?v0) f1) (= (f80 (f107 (f108 ?v1) ?v0)) f1))))
(assert (forall ((?v0 S9) (?v1 S24)) (=> (= (f90 ?v0) f1) (= (f80 (f109 (f110 ?v1) ?v0)) f1))))
(assert (forall ((?v0 S2) (?v1 S49)) (=> (= (f80 ?v0) f1) (= (f93 (f111 (f112 ?v1) ?v0)) f1))))
(assert (forall ((?v0 S2) (?v1 S51)) (=> (= (f80 ?v0) f1) (= (f96 (f113 (f114 ?v1) ?v0)) f1))))
(assert (forall ((?v0 S2) (?v1 S28)) (=> (= (f80 ?v0) f1) (= (f91 (f115 (f116 ?v1) ?v0)) f1))))
(assert (forall ((?v0 S2) (?v1 S26)) (=> (= (f80 ?v0) f1) (= (f88 (f117 (f118 ?v1) ?v0)) f1))))
(assert (forall ((?v0 S9) (?v1 S36)) (=> (= (f90 ?v0) f1) (= (f90 (f33 (f119 ?v1) ?v0)) f1))))
(assert (forall ((?v0 S3) (?v1 S32)) (=> (= (f88 ?v0) f1) (= (f90 (f120 (f121 ?v1) ?v0)) f1))))
(assert (forall ((?v0 S8) (?v1 S34)) (=> (= (f91 ?v0) f1) (= (f90 (f122 (f123 ?v1) ?v0)) f1))))
(assert (forall ((?v0 S2) (?v1 S18)) (=> (= (f80 ?v0) f1) (= (f80 (f22 (f124 ?v1) ?v0)) f1))))
(assert (forall ((?v0 S9)) (= (f18 (f20 f79) ?v0) f1)))
(assert (forall ((?v0 S3)) (= (f6 (f8 f125) ?v0) f1)))
(assert (forall ((?v0 S8)) (= (f15 (f17 f126) ?v0) f1)))
(assert (forall ((?v0 S2)) (= (f3 (f5 f127) ?v0) f1)))
(assert (forall ((?v0 S9) (?v1 S16)) (=> (= (f90 ?v0) f1) (= (f90 (f33 (f75 ?v1) ?v0)) f1))))
(assert (forall ((?v0 S2) (?v1 S10)) (=> (= (f80 ?v0) f1) (= (f80 (f22 (f128 ?v1) ?v0)) f1))))
(assert (forall ((?v0 S4) (?v1 S3)) (=> (= (f93 ?v0) f1) (= (f93 (f26 (f129 ?v1) ?v0)) f1))))
(assert (forall ((?v0 S6) (?v1 S8)) (=> (= (f96 ?v0) f1) (= (f96 (f28 (f130 ?v1) ?v0)) f1))))
(assert (forall ((?v0 S8) (?v1 S9)) (=> (= (f91 ?v0) f1) (= (f91 (f30 (f131 ?v1) ?v0)) f1))))
(assert (forall ((?v0 S3) (?v1 S2)) (=> (= (f88 ?v0) f1) (= (f88 (f24 (f132 ?v1) ?v0)) f1))))
(assert (= (f80 f127) f1))
(assert (= (f90 f79) f1))
(assert (= (f93 f133) f1))
(assert (= (f96 f134) f1))
(assert (= (f91 f126) f1))
(assert (= (f88 f125) f1))
(assert (forall ((?v0 S10) (?v1 S9)) (let ((?v_0 (f75 (f55 f84 ?v0)))) (=> (= (f18 (f73 (f33 ?v_0 ?v1)) (f33 (f75 (f76 f77 (f135 f136 (f137 ?v0)))) f79)) f1) (= (f18 (f73 ?v1) (f33 ?v_0 f79)) f1)))))
(assert (forall ((?v0 S2) (?v1 S2)) (=> (or (= (f80 (f138 ?v0)) f1) (= (f80 (f138 ?v1)) f1)) (= (f80 (f138 (f22 (f23 ?v0) ?v1))) f1))))
(assert (forall ((?v0 S4) (?v1 S4)) (=> (or (= (f93 (f100 ?v0)) f1) (= (f93 (f100 ?v1)) f1)) (= (f93 (f100 (f26 (f27 ?v0) ?v1))) f1))))
(assert (forall ((?v0 S6) (?v1 S6)) (=> (or (= (f96 (f99 ?v0)) f1) (= (f96 (f99 ?v1)) f1)) (= (f96 (f99 (f28 (f29 ?v0) ?v1))) f1))))
(assert (forall ((?v0 S8) (?v1 S8)) (=> (or (= (f91 (f92 ?v0)) f1) (= (f91 (f92 ?v1)) f1)) (= (f91 (f92 (f30 (f31 ?v0) ?v1))) f1))))
(assert (forall ((?v0 S3) (?v1 S3)) (=> (or (= (f88 (f89 ?v0)) f1) (= (f88 (f89 ?v1)) f1)) (= (f88 (f89 (f24 (f25 ?v0) ?v1))) f1))))
(assert (forall ((?v0 S9) (?v1 S9)) (=> (or (= (f90 (f139 ?v0)) f1) (= (f90 (f139 ?v1)) f1)) (= (f90 (f139 (f33 (f34 ?v0) ?v1))) f1))))
(assert (forall ((?v0 S16) (?v1 S2)) (= (f82 (f83 (f56 f57 ?v0)) ?v1) (ite (= ?v1 f127) f79 (f33 (f75 ?v0) f79)))))
(assert (forall ((?v0 S2) (?v1 S9)) (= (f140 (f141 (f50 ?v0)) ?v1) (ite (= ?v1 f79) f125 (f24 (f132 ?v0) f125)))))
(assert (forall ((?v0 S9) (?v1 S9)) (= (f142 (f143 (f54 ?v0)) ?v1) (ite (= ?v1 f79) f126 (f30 (f131 ?v0) f126)))))
(assert (forall ((?v0 S10) (?v1 S9)) (= (f109 (f110 (f45 f46 ?v0)) ?v1) (ite (= ?v1 f79) f127 (f22 (f128 ?v0) f127)))))
(assert (forall ((?v0 S16) (?v1 S9)) (= (f33 (f119 (f65 f66 ?v0)) ?v1) (ite (= ?v1 f79) f79 (f33 (f75 ?v0) f79)))))
(assert (forall ((?v0 S16) (?v1 S3)) (= (f120 (f121 (f59 f60 ?v0)) ?v1) (ite (= ?v1 f125) f79 (f33 (f75 ?v0) f79)))))
(assert (forall ((?v0 S16) (?v1 S8)) (= (f122 (f123 (f62 f63 ?v0)) ?v1) (ite (= ?v1 f126) f79 (f33 (f75 ?v0) f79)))))
(assert (forall ((?v0 S2) (?v1 S2)) (= (f117 (f118 (f48 ?v0)) ?v1) (ite (= ?v1 f127) f125 (f24 (f132 ?v0) f125)))))
(assert (forall ((?v0 S9) (?v1 S2)) (= (f115 (f116 (f52 ?v0)) ?v1) (ite (= ?v1 f127) f126 (f30 (f131 ?v0) f126)))))
(assert (forall ((?v0 S10) (?v1 S2)) (= (f22 (f124 (f36 f37 ?v0)) ?v1) (ite (= ?v1 f127) f127 (f22 (f128 ?v0) f127)))))
(assert (forall ((?v0 S10) (?v1 S3)) (= (f107 (f108 (f39 f40 ?v0)) ?v1) (ite (= ?v1 f125) f127 (f22 (f128 ?v0) f127)))))
(assert (forall ((?v0 S10) (?v1 S8)) (= (f105 (f106 (f42 f43 ?v0)) ?v1) (ite (= ?v1 f126) f127 (f22 (f128 ?v0) f127)))))
(assert (forall ((?v0 S10) (?v1 S2) (?v2 S16)) (=> (= (f3 (f87 ?v0) ?v1) f1) (= (f82 (f83 (f56 f57 ?v2)) ?v1) (f33 (f75 ?v2) f79)))))
(assert (forall ((?v0 S16) (?v1 S9) (?v2 S16)) (=> (= (f18 (f144 ?v0) ?v1) f1) (= (f33 (f119 (f65 f66 ?v2)) ?v1) (f33 (f75 ?v2) f79)))))
(assert (forall ((?v0 S10) (?v1 S2) (?v2 S10)) (=> (= (f3 (f87 ?v0) ?v1) f1) (= (f22 (f124 (f36 f37 ?v2)) ?v1) (f22 (f128 ?v2) f127)))))
(assert (forall ((?v0 S16) (?v1 S9) (?v2 S10)) (=> (= (f18 (f144 ?v0) ?v1) f1) (= (f109 (f110 (f45 f46 ?v2)) ?v1) (f22 (f128 ?v2) f127)))))
(assert (forall ((?v0 S2) (?v1 S3) (?v2 S16)) (=> (= (f6 (f145 ?v0) ?v1) f1) (= (f120 (f121 (f59 f60 ?v2)) ?v1) (f33 (f75 ?v2) f79)))))
(assert (forall ((?v0 S9) (?v1 S8) (?v2 S16)) (=> (= (f15 (f146 ?v0) ?v1) f1) (= (f122 (f123 (f62 f63 ?v2)) ?v1) (f33 (f75 ?v2) f79)))))
(assert (forall ((?v0 S10) (?v1 S2) (?v2 S2)) (=> (= (f3 (f87 ?v0) ?v1) f1) (= (f117 (f118 (f48 ?v2)) ?v1) (f24 (f132 ?v2) f125)))))
(assert (forall ((?v0 S10) (?v1 S2) (?v2 S9)) (=> (= (f3 (f87 ?v0) ?v1) f1) (= (f115 (f116 (f52 ?v2)) ?v1) (f30 (f131 ?v2) f126)))))
(assert (forall ((?v0 S2) (?v1 S3) (?v2 S10)) (=> (= (f6 (f145 ?v0) ?v1) f1) (= (f107 (f108 (f39 f40 ?v2)) ?v1) (f22 (f128 ?v2) f127)))))
(assert (forall ((?v0 S9) (?v1 S8) (?v2 S10)) (=> (= (f15 (f146 ?v0) ?v1) f1) (= (f105 (f106 (f42 f43 ?v2)) ?v1) (f22 (f128 ?v2) f127)))))
(assert (forall ((?v0 S2) (?v1 S9) (?v2 S30)) (=> (= (f80 ?v0) f1) (=> (= (f18 (f20 ?v1) (f82 (f83 ?v2) ?v0)) f1) (= (f90 ?v1) f1)))))
(assert (forall ((?v0 S4) (?v1 S2) (?v2 S42)) (=> (= (f93 ?v0) f1) (=> (= (f3 (f5 ?v1) (f101 (f102 ?v2) ?v0)) f1) (= (f80 ?v1) f1)))))
(assert (forall ((?v0 S6) (?v1 S2) (?v2 S44)) (=> (= (f96 ?v0) f1) (=> (= (f3 (f5 ?v1) (f103 (f104 ?v2) ?v0)) f1) (= (f80 ?v1) f1)))))
(assert (forall ((?v0 S8) (?v1 S2) (?v2 S22)) (=> (= (f91 ?v0) f1) (=> (= (f3 (f5 ?v1) (f105 (f106 ?v2) ?v0)) f1) (= (f80 ?v1) f1)))))
(assert (forall ((?v0 S3) (?v1 S2) (?v2 S20)) (=> (= (f88 ?v0) f1) (=> (= (f3 (f5 ?v1) (f107 (f108 ?v2) ?v0)) f1) (= (f80 ?v1) f1)))))
(assert (forall ((?v0 S9) (?v1 S2) (?v2 S24)) (=> (= (f90 ?v0) f1) (=> (= (f3 (f5 ?v1) (f109 (f110 ?v2) ?v0)) f1) (= (f80 ?v1) f1)))))
(assert (forall ((?v0 S2) (?v1 S4) (?v2 S49)) (=> (= (f80 ?v0) f1) (=> (= (f11 ?v1 (f111 (f112 ?v2) ?v0)) f1) (= (f93 ?v1) f1)))))
(assert (forall ((?v0 S2) (?v1 S6) (?v2 S51)) (=> (= (f80 ?v0) f1) (=> (= (f14 ?v1 (f113 (f114 ?v2) ?v0)) f1) (= (f96 ?v1) f1)))))
(assert (forall ((?v0 S2) (?v1 S2) (?v2 S18)) (=> (= (f80 ?v0) f1) (=> (= (f3 (f5 ?v1) (f22 (f124 ?v2) ?v0)) f1) (= (f80 ?v1) f1)))))
(assert (forall ((?v0 S2) (?v1 S8) (?v2 S28)) (=> (= (f80 ?v0) f1) (=> (= (f15 (f17 ?v1) (f115 (f116 ?v2) ?v0)) f1) (= (f91 ?v1) f1)))))
(assert (forall ((?v0 S2) (?v1 S3) (?v2 S26)) (=> (= (f80 ?v0) f1) (=> (= (f6 (f8 ?v1) (f117 (f118 ?v2) ?v0)) f1) (= (f88 ?v1) f1)))))
(assert (forall ((?v0 S4) (?v1 S9) (?v2 S61)) (=> (= (f93 ?v0) f1) (=> (= (f18 (f20 ?v1) (f147 (f148 ?v2) ?v0)) f1) (= (f90 ?v1) f1)))))
(assert (forall ((?v0 S6) (?v1 S9) (?v2 S63)) (=> (= (f96 ?v0) f1) (=> (= (f18 (f20 ?v1) (f149 (f150 ?v2) ?v0)) f1) (= (f90 ?v1) f1)))))
(assert (forall ((?v0 S8) (?v1 S9) (?v2 S34)) (=> (= (f91 ?v0) f1) (=> (= (f18 (f20 ?v1) (f122 (f123 ?v2) ?v0)) f1) (= (f90 ?v1) f1)))))
(assert (forall ((?v0 S3) (?v1 S9) (?v2 S32)) (=> (= (f88 ?v0) f1) (=> (= (f18 (f20 ?v1) (f120 (f121 ?v2) ?v0)) f1) (= (f90 ?v1) f1)))))
(assert (forall ((?v0 S9) (?v1 S9) (?v2 S36)) (=> (= (f90 ?v0) f1) (=> (= (f18 (f20 ?v1) (f33 (f119 ?v2) ?v0)) f1) (= (f90 ?v1) f1)))))
(assert (forall ((?v0 S9) (?v1 S16)) (let ((?v_0 (f33 (f75 ?v1) f79))) (=> (= (f18 (f20 ?v0) ?v_0) f1) (or (= ?v0 f79) (= ?v0 ?v_0))))))
(assert (forall ((?v0 S3) (?v1 S2)) (let ((?v_0 (f24 (f132 ?v1) f125))) (=> (= (f6 (f8 ?v0) ?v_0) f1) (or (= ?v0 f125) (= ?v0 ?v_0))))))
(assert (forall ((?v0 S8) (?v1 S9)) (let ((?v_0 (f30 (f131 ?v1) f126))) (=> (= (f15 (f17 ?v0) ?v_0) f1) (or (= ?v0 f126) (= ?v0 ?v_0))))))
(assert (forall ((?v0 S2) (?v1 S10)) (let ((?v_0 (f22 (f128 ?v1) f127))) (=> (= (f3 (f5 ?v0) ?v_0) f1) (or (= ?v0 f127) (= ?v0 ?v_0))))))
(assert (forall ((?v0 S16) (?v1 S30) (?v2 S10) (?v3 S2)) (=> (= ?v0 (f55 ?v1 ?v2)) (=> (= (f3 (f87 ?v2) ?v3) f1) (= (f18 (f144 ?v0) (f82 (f83 ?v1) ?v3)) f1)))))
(assert (forall ((?v0 S10) (?v1 S24) (?v2 S16) (?v3 S9)) (=> (= ?v0 (f44 ?v1 ?v2)) (=> (= (f18 (f144 ?v2) ?v3) f1) (= (f3 (f87 ?v0) (f109 (f110 ?v1) ?v3)) f1)))))
(assert (forall ((?v0 S16) (?v1 S36) (?v2 S16) (?v3 S9)) (=> (= ?v0 (f64 ?v1 ?v2)) (=> (= (f18 (f144 ?v2) ?v3) f1) (= (f18 (f144 ?v0) (f33 (f119 ?v1) ?v3)) f1)))))
(assert (forall ((?v0 S16) (?v1 S32) (?v2 S2) (?v3 S3)) (=> (= ?v0 (f58 ?v1 ?v2)) (=> (= (f6 (f145 ?v2) ?v3) f1) (= (f18 (f144 ?v0) (f120 (f121 ?v1) ?v3)) f1)))))
(assert (forall ((?v0 S16) (?v1 S34) (?v2 S9) (?v3 S8)) (=> (= ?v0 (f61 ?v1 ?v2)) (=> (= (f15 (f146 ?v2) ?v3) f1) (= (f18 (f144 ?v0) (f122 (f123 ?v1) ?v3)) f1)))))
(assert (forall ((?v0 S2) (?v1 S26) (?v2 S10) (?v3 S2)) (=> (= ?v0 (f47 ?v1 ?v2)) (=> (= (f3 (f87 ?v2) ?v3) f1) (= (f6 (f145 ?v0) (f117 (f118 ?v1) ?v3)) f1)))))
(assert (forall ((?v0 S9) (?v1 S28) (?v2 S10) (?v3 S2)) (=> (= ?v0 (f51 ?v1 ?v2)) (=> (= (f3 (f87 ?v2) ?v3) f1) (= (f15 (f146 ?v0) (f115 (f116 ?v1) ?v3)) f1)))))
(assert (forall ((?v0 S10) (?v1 S18) (?v2 S10) (?v3 S2)) (=> (= ?v0 (f35 ?v1 ?v2)) (=> (= (f3 (f87 ?v2) ?v3) f1) (= (f3 (f87 ?v0) (f22 (f124 ?v1) ?v3)) f1)))))
(assert (forall ((?v0 S10) (?v1 S20) (?v2 S2) (?v3 S3)) (=> (= ?v0 (f38 ?v1 ?v2)) (=> (= (f6 (f145 ?v2) ?v3) f1) (= (f3 (f87 ?v0) (f107 (f108 ?v1) ?v3)) f1)))))
(assert (forall ((?v0 S10) (?v1 S22) (?v2 S9) (?v3 S8)) (=> (= ?v0 (f41 ?v1 ?v2)) (=> (= (f15 (f146 ?v2) ?v3) f1) (= (f3 (f87 ?v0) (f105 (f106 ?v1) ?v3)) f1)))))
(assert (forall ((?v0 S10)) (=> (= (f3 (f87 ?v0) f127) f1) false)))
(assert (forall ((?v0 S16)) (=> (= (f18 (f144 ?v0) f79) f1) false)))
(assert (forall ((?v0 S2)) (=> (= (f6 (f145 ?v0) f125) f1) false)))
(assert (forall ((?v0 S9)) (=> (= (f15 (f146 ?v0) f126) f1) false)))
(assert (forall ((?v0 S16) (?v1 S9) (?v2 S16)) (let ((?v_0 (f144 ?v0))) (=> (=> (not (= (f18 ?v_0 ?v1) f1)) (= ?v0 ?v2)) (= (f18 ?v_0 (f33 (f75 ?v2) ?v1)) f1)))))
(assert (forall ((?v0 S10) (?v1 S2) (?v2 S10)) (let ((?v_0 (f87 ?v0))) (=> (=> (not (= (f3 ?v_0 ?v1) f1)) (= ?v0 ?v2)) (= (f3 ?v_0 (f22 (f128 ?v2) ?v1)) f1)))))
(assert (forall ((?v0 S2) (?v1 S3) (?v2 S2)) (let ((?v_0 (f145 ?v0))) (=> (=> (not (= (f6 ?v_0 ?v1) f1)) (= ?v0 ?v2)) (= (f6 ?v_0 (f24 (f132 ?v2) ?v1)) f1)))))
(assert (forall ((?v0 S9) (?v1 S8) (?v2 S9)) (let ((?v_0 (f146 ?v0))) (=> (=> (not (= (f15 ?v_0 ?v1) f1)) (= ?v0 ?v2)) (= (f15 ?v_0 (f30 (f131 ?v2) ?v1)) f1)))))
(assert (forall ((?v0 S16) (?v1 S16) (?v2 S9)) (let ((?v_0 (f144 ?v0))) (=> (= (f18 ?v_0 (f33 (f75 ?v1) ?v2)) f1) (=> (=> (= ?v0 ?v1) false) (=> (=> (= (f18 ?v_0 ?v2) f1) false) false))))))
(assert (forall ((?v0 S10) (?v1 S10) (?v2 S2)) (let ((?v_0 (f87 ?v0))) (=> (= (f3 ?v_0 (f22 (f128 ?v1) ?v2)) f1) (=> (=> (= ?v0 ?v1) false) (=> (=> (= (f3 ?v_0 ?v2) f1) false) false))))))
(assert (forall ((?v0 S2) (?v1 S2) (?v2 S3)) (let ((?v_0 (f145 ?v0))) (=> (= (f6 ?v_0 (f24 (f132 ?v1) ?v2)) f1) (=> (=> (= ?v0 ?v1) false) (=> (=> (= (f6 ?v_0 ?v2) f1) false) false))))))
(assert (forall ((?v0 S9) (?v1 S9) (?v2 S8)) (let ((?v_0 (f146 ?v0))) (=> (= (f15 ?v_0 (f30 (f131 ?v1) ?v2)) f1) (=> (=> (= ?v0 ?v1) false) (=> (=> (= (f15 ?v_0 ?v2) f1) false) false))))))
(assert (forall ((?v0 S9) (?v1 S9)) (=> (= (f18 (f20 ?v0) ?v1) f1) (=> (= (f18 (f20 ?v1) ?v0) f1) (= ?v0 ?v1)))))
(assert (forall ((?v0 S3) (?v1 S3)) (=> (= (f6 (f8 ?v0) ?v1) f1) (=> (= (f6 (f8 ?v1) ?v0) f1) (= ?v0 ?v1)))))
(assert (forall ((?v0 S8) (?v1 S8)) (=> (= (f15 (f17 ?v0) ?v1) f1) (=> (= (f15 (f17 ?v1) ?v0) f1) (= ?v0 ?v1)))))
(assert (forall ((?v0 S2) (?v1 S2)) (=> (= (f3 (f5 ?v0) ?v1) f1) (=> (= (f3 (f5 ?v1) ?v0) f1) (= ?v0 ?v1)))))
(assert (forall ((?v0 S2) (?v1 S2) (?v2 S10)) (let ((?v_0 (f87 ?v2))) (=> (= (f3 (f5 ?v0) ?v1) f1) (=> (= (f3 ?v_0 ?v0) f1) (= (f3 ?v_0 ?v1) f1))))))
(assert (forall ((?v0 S9) (?v1 S9) (?v2 S16)) (let ((?v_0 (f144 ?v2))) (=> (= (f18 (f20 ?v0) ?v1) f1) (=> (= (f18 ?v_0 ?v0) f1) (= (f18 ?v_0 ?v1) f1))))))
(assert (forall ((?v0 S3) (?v1 S3) (?v2 S2)) (let ((?v_0 (f145 ?v2))) (=> (= (f6 (f8 ?v0) ?v1) f1) (=> (= (f6 ?v_0 ?v0) f1) (= (f6 ?v_0 ?v1) f1))))))
(assert (forall ((?v0 S8) (?v1 S8) (?v2 S9)) (let ((?v_0 (f146 ?v2))) (=> (= (f15 (f17 ?v0) ?v1) f1) (=> (= (f15 ?v_0 ?v0) f1) (= (f15 ?v_0 ?v1) f1))))))
(assert (forall ((?v0 S10)) (=> (= (f3 (f87 ?v0) f81) f1) (= (f86 (f135 f136 (f137 ?v0))) f1))))
(assert (forall ((?v0 S2) (?v1 S10)) (=> (= ?v0 f127) (not (= (f3 (f87 ?v1) ?v0) f1)))))
(assert (forall ((?v0 S9) (?v1 S16)) (=> (= ?v0 f79) (not (= (f18 (f144 ?v1) ?v0) f1)))))
(assert (forall ((?v0 S3) (?v1 S2)) (=> (= ?v0 f125) (not (= (f6 (f145 ?v1) ?v0) f1)))))
(assert (forall ((?v0 S8) (?v1 S9)) (=> (= ?v0 f126) (not (= (f15 (f146 ?v1) ?v0) f1)))))
(assert (forall ((?v0 S9)) (= (= (f139 ?v0) f79) (forall ((?v1 S16)) (not (= (f32 ?v0 ?v1) f1))))))
(assert (forall ((?v0 S4)) (= (= (f100 ?v0) f133) (forall ((?v1 S3)) (not (= (f6 ?v0 ?v1) f1))))))
(assert (forall ((?v0 S6)) (= (= (f99 ?v0) f134) (forall ((?v1 S8)) (not (= (f15 ?v0 ?v1) f1))))))
(assert (forall ((?v0 S8)) (= (= (f92 ?v0) f126) (forall ((?v1 S9)) (not (= (f18 ?v0 ?v1) f1))))))
(assert (forall ((?v0 S3)) (= (= (f89 ?v0) f125) (forall ((?v1 S2)) (not (= (f3 ?v0 ?v1) f1))))))
(assert (forall ((?v0 S2)) (= (= (f138 ?v0) f127) (forall ((?v1 S10)) (not (= (f21 ?v0 ?v1) f1))))))
(assert (forall ((?v0 S10)) (= (= (f3 (f87 ?v0) f127) f1) false)))
(assert (forall ((?v0 S16)) (= (= (f18 (f144 ?v0) f79) f1) false)))
(assert (forall ((?v0 S2)) (= (= (f6 (f145 ?v0) f125) f1) false)))
(assert (forall ((?v0 S9)) (= (= (f15 (f146 ?v0) f126) f1) false)))
(assert (forall ((?v0 S9)) (= (= f79 (f139 ?v0)) (forall ((?v1 S16)) (not (= (f32 ?v0 ?v1) f1))))))
(assert (forall ((?v0 S4)) (= (= f133 (f100 ?v0)) (forall ((?v1 S3)) (not (= (f6 ?v0 ?v1) f1))))))
(assert (forall ((?v0 S6)) (= (= f134 (f99 ?v0)) (forall ((?v1 S8)) (not (= (f15 ?v0 ?v1) f1))))))
(assert (forall ((?v0 S8)) (= (= f126 (f92 ?v0)) (forall ((?v1 S9)) (not (= (f18 ?v0 ?v1) f1))))))
(assert (forall ((?v0 S3)) (= (= f125 (f89 ?v0)) (forall ((?v1 S2)) (not (= (f3 ?v0 ?v1) f1))))))
(assert (forall ((?v0 S2)) (= (= f127 (f138 ?v0)) (forall ((?v1 S10)) (not (= (f21 ?v0 ?v1) f1))))))
(assert (forall ((?v0 S2)) (= (forall ((?v1 S10)) (=> (= (f3 (f87 ?v1) f127) f1) (= (f21 ?v0 ?v1) f1))) true)))
(assert (forall ((?v0 S9)) (= (forall ((?v1 S16)) (=> (= (f18 (f144 ?v1) f79) f1) (= (f32 ?v0 ?v1) f1))) true)))
(assert (forall ((?v0 S3)) (= (forall ((?v1 S2)) (=> (= (f6 (f145 ?v1) f125) f1) (= (f3 ?v0 ?v1) f1))) true)))
(assert (forall ((?v0 S8)) (= (forall ((?v1 S9)) (=> (= (f15 (f146 ?v1) f126) f1) (= (f18 ?v0 ?v1) f1))) true)))
(assert (forall ((?v0 S2)) (= (exists ((?v1 S10)) (and (= (f3 (f87 ?v1) f127) f1) (= (f21 ?v0 ?v1) f1))) false)))
(assert (forall ((?v0 S9)) (= (exists ((?v1 S16)) (and (= (f18 (f144 ?v1) f79) f1) (= (f32 ?v0 ?v1) f1))) false)))
(assert (forall ((?v0 S3)) (= (exists ((?v1 S2)) (and (= (f6 (f145 ?v1) f125) f1) (= (f3 ?v0 ?v1) f1))) false)))
(assert (forall ((?v0 S8)) (= (exists ((?v1 S9)) (and (= (f15 (f146 ?v1) f126) f1) (= (f18 ?v0 ?v1) f1))) false)))
(assert (forall ((?v0 S2)) (= (exists ((?v1 S10)) (= (f3 (f87 ?v1) ?v0) f1)) (not (= ?v0 f127)))))
(assert (forall ((?v0 S9)) (= (exists ((?v1 S16)) (= (f18 (f144 ?v1) ?v0) f1)) (not (= ?v0 f79)))))
(assert (forall ((?v0 S3)) (= (exists ((?v1 S2)) (= (f6 (f145 ?v1) ?v0) f1)) (not (= ?v0 f125)))))
(assert (forall ((?v0 S8)) (= (exists ((?v1 S9)) (= (f15 (f146 ?v1) ?v0) f1)) (not (= ?v0 f126)))))
(assert (forall ((?v0 S2)) (= (forall ((?v1 S10)) (not (= (f3 (f87 ?v1) ?v0) f1))) (= ?v0 f127))))
(assert (forall ((?v0 S9)) (= (forall ((?v1 S16)) (not (= (f18 (f144 ?v1) ?v0) f1))) (= ?v0 f79))))
(assert (forall ((?v0 S3)) (= (forall ((?v1 S2)) (not (= (f6 (f145 ?v1) ?v0) f1))) (= ?v0 f125))))
(assert (forall ((?v0 S8)) (= (forall ((?v1 S9)) (not (= (f15 (f146 ?v1) ?v0) f1))) (= ?v0 f126))))
(assert (= f79 (f139 f72)))
(assert (= f133 (f100 f69)))
(assert (= f134 (f99 f70)))
(assert (= f126 (f92 f71)))
(assert (= f125 (f89 f68)))
(assert (= f127 (f138 f67)))
(assert (forall ((?v0 S16) (?v1 S9)) (=> (= (f18 (f144 ?v0) ?v1) f1) (= (f33 (f75 ?v0) ?v1) ?v1))))
(assert (forall ((?v0 S10) (?v1 S2)) (=> (= (f3 (f87 ?v0) ?v1) f1) (= (f22 (f128 ?v0) ?v1) ?v1))))
(assert (forall ((?v0 S2) (?v1 S3)) (=> (= (f6 (f145 ?v0) ?v1) f1) (= (f24 (f132 ?v0) ?v1) ?v1))))
(assert (forall ((?v0 S9) (?v1 S8)) (=> (= (f15 (f146 ?v0) ?v1) f1) (= (f30 (f131 ?v0) ?v1) ?v1))))
(check-sat)
(exit)
